
Gurobi 9.0.2 (win64) logging started Sat Oct 10 13:03:22 2020

Changed value of parameter logfile to result\v6.2-20201010T1221\scenario_2030_eff085_cab3800.log
   Prev:   Default: 
Gurobi Optimizer version 9.0.2 build v9.0.2rc0 (win64)
Optimize a model with 1384150 rows, 884815 columns and 3912197 nonzeros
Model fingerprint: 0x972d0323
Coefficient statistics:
  Matrix range     [1e-07, 4e+05]
  Objective range  [1e+00, 1e+00]
  Bounds range     [0e+00, 0e+00]
  RHS range        [2e-05, 3e+08]
Warning: Model contains large matrix coefficient range
         Consider reformulating model or setting NumericFocus parameter
         to avoid numerical issues.

Concurrent LP optimizer: primal simplex, dual simplex, and barrier
Showing barrier log only...

Presolve removed 1129315 rows and 656241 columns
Presolve time: 5.50s
Presolved: 254835 rows, 342440 columns, 891938 nonzeros

Ordering time: 0.23s

Barrier statistics:
 Dense cols : 9
 AA' NZ     : 8.194e+05
 Factor NZ  : 4.461e+06 (roughly 300 MBytes of memory)
 Factor Ops : 1.125e+08 (less than 1 second per iteration)
 Threads    : 30

                  Objective                Residual
Iter       Primal          Dual         Primal    Dual     Compl     Time
   0  -2.03879367e+16 -1.58516170e+15  6.11e+06 1.56e+04  2.45e+12     7s
   1  -3.12766450e+15 -1.58938417e+15  9.30e+05 4.73e+06  8.03e+11     7s
   2  -1.27385019e+15 -1.31159408e+15  3.76e+05 7.68e+05  2.15e+11     7s
   3  -4.89674020e+14 -1.06103991e+15  1.40e+05 2.07e+05  7.08e+10     8s
   4  -1.11238657e+14 -6.51900312e+14  2.92e+04 5.05e+04  1.64e+10     8s
   5  -3.53081900e+13 -4.30314653e+14  9.31e+03 2.46e+04  6.57e+09     8s
   6  -1.64625556e+13 -2.41560198e+14  4.60e+03 7.10e+03  2.54e+09     8s
   7  -6.06174538e+12 -1.36651520e+14  1.85e+03 1.31e+03  7.86e+08     9s
   8  -6.01398372e+11 -6.13857676e+13  3.59e+02 1.75e+02  1.66e+08     9s
   9   5.71219460e+11 -5.81214394e+12  1.20e+00 1.10e+00  9.43e+06     9s
  10   1.44049997e+11 -1.06974968e+12  1.55e-01 9.09e-09  1.76e+06    10s
  11   6.28207178e+10 -3.04048705e+11  5.55e-02 7.45e-09  5.32e+05    10s
  12   3.02737219e+10 -1.33459780e+11  2.29e-02 7.45e-09  2.37e+05    10s
  13   1.98176133e+10 -6.16020728e+10  1.27e-02 7.45e-09  1.18e+05    11s
  14   2.00604259e+10 -5.17962362e+10  1.24e-02 1.12e-08  1.04e+05    11s
  15   1.33642943e+10 -1.59611039e+10  4.96e-03 1.12e-08  4.25e+04    11s
  16   9.24917231e+09 -3.34949357e+07  1.52e-03 9.31e-09  1.34e+04    11s
  17   8.55193820e+09  3.96724372e+09  1.01e-03 5.59e-09  6.64e+03    12s
  18   8.28415324e+09  4.42798290e+09  8.26e-04 5.59e-09  5.58e+03    12s
  19   8.03736584e+09  4.63352838e+09  6.60e-04 5.59e-09  4.93e+03    12s
  20   7.97655232e+09  5.23048931e+09  6.20e-04 5.59e-09  3.97e+03    13s
  21   7.71224982e+09  5.92719163e+09  4.55e-04 3.73e-09  2.58e+03    13s
  22   7.51982471e+09  6.02694446e+09  3.25e-04 3.73e-09  2.16e+03    13s
  23   7.32911762e+09  6.37232899e+09  1.97e-04 2.79e-09  1.38e+03    14s
  24   7.15112952e+09  6.62683419e+09  8.61e-05 1.86e-09  7.58e+02    14s
  25   7.08045819e+09  6.75709162e+09  4.44e-05 1.86e-09  4.67e+02    15s
  26   7.05161754e+09  6.82839754e+09  2.91e-05 1.86e-09  3.22e+02    15s
  27   7.04443564e+09  6.83808579e+09  2.54e-05 1.86e-09  2.98e+02    15s
  28   7.03511655e+09  6.85767205e+09  2.06e-05 1.86e-09  2.56e+02    16s
  29   7.02593615e+09  6.88195099e+09  1.59e-05 1.86e-09  2.08e+02    16s
  30   7.01514954e+09  6.90967650e+09  1.03e-05 1.86e-09  1.52e+02    16s
  31   7.00467528e+09  6.92934593e+09  5.49e-06 1.86e-09  1.09e+02    17s
  32   7.00112807e+09  6.95019944e+09  3.84e-06 1.86e-09  7.35e+01    17s
  33   6.99667381e+09  6.96433432e+09  1.80e-06 1.86e-09  4.67e+01    17s
  34   6.99545984e+09  6.97146847e+09  1.26e-06 1.86e-09  3.46e+01    18s
  35   6.99423861e+09  6.97769225e+09  6.76e-07 2.79e-09  2.39e+01    18s
  36   6.99364786e+09  6.97815481e+09  4.66e-07 1.86e-09  2.24e+01    18s
  37   6.99307507e+09  6.98554848e+09  2.45e-07 1.86e-09  1.09e+01    19s
  38   6.99268355e+09  6.98634071e+09  1.13e-07 1.86e-09  9.16e+00    19s
  39   6.99247552e+09  6.98817275e+09  1.10e-07 1.86e-09  6.21e+00    19s
  40   6.99241019e+09  6.98930907e+09  8.19e-08 1.86e-09  4.48e+00    19s
  41   6.99236035e+09  6.99193443e+09  1.75e-07 2.79e-09  6.15e-01    20s
  42   6.99234401e+09  6.99217686e+09  1.23e-07 2.79e-09  2.41e-01    20s
  43   6.99233711e+09  6.99219566e+09  1.24e-07 1.86e-09  2.04e-01    20s
  44   6.99232879e+09  6.99230817e+09  1.60e-07 2.79e-09  2.98e-02    21s
  45   6.99232761e+09  6.99232746e+09  1.33e-09 2.79e-09  2.13e-04    21s
  46   6.99232761e+09  6.99232746e+09  3.64e-05 3.73e-09  2.13e-04    21s

Barrier solved model in 46 iterations and 21.36 seconds
Optimal objective 6.99232761e+09

Crossover log...

   75767 DPushes remaining with DInf 0.0000000e+00                22s
    3854 DPushes remaining with DInf 0.0000000e+00                25s
     603 DPushes remaining with DInf 0.0000000e+00                30s
       0 DPushes remaining with DInf 0.0000000e+00                32s
Warning: Markowitz tolerance tightened to 0.5

  112565 PPushes remaining with PInf 1.2287435e-03                32s
   60210 PPushes remaining with PInf 3.5390029e-02                51s
   44557 PPushes remaining with PInf 3.6961535e-02                59s
   29239 PPushes remaining with PInf 5.4824091e-02                77s
    8226 PPushes remaining with PInf 8.4228742e-02               122s
    5056 PPushes remaining with PInf 1.8505179e-01               125s
       0 PPushes remaining with PInf 0.0000000e+00               146s

  Push phase complete: Pinf 0.0000000e+00, Dinf 2.2136702e+06    146s

Iteration    Objective       Primal Inf.    Dual Inf.      Time
  139563    6.9923276e+09   0.000000e+00   2.213670e+06    146s
  140731    6.9923276e+09   0.000000e+00   0.000000e+00    150s

Solved with barrier
Solved in 140731 iterations and 150.20 seconds
Optimal objective  6.992327575e+09
Warning: unscaled primal violation = 0.000880155 and residual = 0.000880155
